(set-info :Origin "This instance was generated by: BanditFuzz-- an RL fuzzer for SMT solvers" )
(set-info :Author "Joe Scott, Fed Mora, Vijay Ganesh" )
(set-info :Contact "Joe Scott, joseph.scott@uwaterloo.ca")
; solvers/z3.sh
; 	time => 0.040885210037231445
; 	answer => err
; solvers/cvc4.sh
; 	time => 0.04542946815490723
; 	answer => err
(set-logic QF_NIA)
(declare-const bool_0 Bool)
(declare-const bool_1 Bool)
(declare-const bool_2 Bool)
(declare-const bool_3 Bool)
(declare-const bool_4 Bool)
(declare-const int_0 Int)
(declare-const int_1 Int)
(declare-const int_2 Int)
(declare-const int_3 Int)
(declare-const int_4 Int)
(assert (not (< (- int_3) (mod (- 24431113) int_1))))
(assert (or (or (not bool_1) (or true true)) (< (- int_4) (- 888886611 int_1))))
(assert (or (< (* 483223248 int_1) (- int_4)) (> (- int_1 int_3) (- 896562443))))
(assert (> (- (* 588997295 int_4) (mod (- 885323134) 848132392)) (mod (/ 919908182 (- 138985902)) (- int_2))))
(assert (and (=> (or bool_4 true) (xor bool_0 false)) (< (mod (- 531279869) int_1) (+ int_3 880872740))))
(check-sat)
(exit)
